% Logging successfully configured
%%%mzn-stat: initTime=0.031342082
%%%mzn-stat: objective=927
%%%mzn-stat: nodes=1838
%%%mzn-stat: restarts=0
%%%mzn-stat: peakDepth=1759
%%%mzn-stat: solveTime=0.061272914
%%%mzn-stat: variables=2442
%%%mzn-stat: propagators=2041
%%%mzn-stat: failures=17
%%%mzn-stat: propagations=8493
%%%mzn-stat: nogoods=17
%%%mzn-stat: numAtomicConstraintsPropagated=0
%%%mzn-stat: allDifferentNumber1PropagationsTotal=426
%%%mzn-stat: allDifferentNumber1PropagationsThatFoundConflict=0
%%%mzn-stat: allDifferentNumber1PropagationsThatPruned=227
%%%mzn-stat: allDifferentNumber1TotalValuesPruned=1383
%%%mzn-stat: allDifferentNumber1TotalHallSetSizeConflict=0
%%%mzn-stat: allDifferentNumber1NumberOfConflicts=0
%%%mzn-stat: allDifferentNumber1MaxHallSetSizeConflict=0
%%%mzn-stat: allDifferentNumber1TotalPruningHallSetSize=4960
%%%mzn-stat: allDifferentNumber1NumberOfPruningExplanations=1383
%%%mzn-stat: allDifferentNumber1MaxPruningHallSetSize=46
%%%mzn-stat: allDifferentNumber1TotalFixedEdgesAtConflict=0
%%%mzn-stat: allDifferentNumber1TotalVarsInvolvedInPruning=1226
%%%mzn-stat: allDifferentNumber1MaxValuesPrunedFromSingleVar=6
%%%mzn-stat: allDifferentNumber1TotalSccSizeAtPruning=1448
%%%mzn-stat: allDifferentNumber1NumberOfSccPruningCalls=227
%%%mzn-stat: circuitNumber2PropagationsThatFoundConflict=17
%%%mzn-stat: circuitNumber2TotalFixedEdgesAtConflict=2201
%%%mzn-stat: circuitNumber2NumberOfConflicts=17
%%%mzn-stat: circuitNumber2PropagationsThatPruned=33
%%%mzn-stat: circuitNumber2PropagationsTotal=232
%%%mzn-stat: AverageConflictSize=4
%%%mzn-stat: NumUnitNogoodsLearned=0
%%%mzn-stat: AverageLearnedNogoodLength=23.11764705882353
%%%mzn-stat: AverageBacktrackAmount=0
%%%mzn-stat: AverageLbd=9.882352941176471
%%%mzn-stat: 2AutonomousSearchNumBackupCalled=1646
%%%mzn-stat: 2AutonomousSearchNumPredicatesRemoved=0
%%%mzn-stat: 2AutonomousSearchNumCalls=1647
%%%mzn-stat: 2AutonomousSearchNumPredicatesAdded=841
%%%mzn-stat: 2AutonomousSearchAverageSizeOfHeap=0.5106253794778385
%%%mzn-stat: 2AutonomousSearchNumAssignedPredicatesEncountered=841
%%%mzn-stat-end
maxleg = 927;
succ = array1d(1..150,[30, 4, 18, 5, 15, 8, 34, 17, 24, 21, 26, 32, 20, 47, 43, 41, 27, 46, 63, 23, 42, 38, 6, 16, 2, 31, 11, 53, 3, 19, 36, 39, 1, 22, 7, 66, 10, 44, 54, 13, 84, 28, 12, 45, 52, 49, 48, 40, 9, 71, 14, 57, 126, 51, 68, 33, 65, 70, 96, 29, 25, 35, 72, 37, 59, 50, 60, 81, 61, 85, 90, 64, 75, 77, 74, 69, 79, 76, 101, 58, 83, 73, 108, 56, 102, 55, 86, 105, 67, 139, 89, 120, 114, 80, 115, 118, 87, 94, 97, 124, 111, 110, 104, 122, 127, 62, 119, 142, 78, 93, 112, 103, 99, 123, 131, 121, 113, 136, 149, 132, 134, 145, 125, 130, 143, 128, 92, 138, 133, 117, 141, 100, 107, 135, 129, 147, 140, 116, 146, 91, 88, 109, 95, 137, 144, 150, 148, 98, 106, 82]);
% time elapsed: 18.50 s
----------
%%%mzn-stat: initTime=0.031342082
%%%mzn-stat: objective=832
%%%mzn-stat: nodes=3564
%%%mzn-stat: restarts=0
%%%mzn-stat: peakDepth=1759
%%%mzn-stat: solveTime=0.112528335
%%%mzn-stat: variables=2442
%%%mzn-stat: propagators=2041
%%%mzn-stat: failures=28
%%%mzn-stat: propagations=12487
%%%mzn-stat: nogoods=28
%%%mzn-stat: numAtomicConstraintsPropagated=0
%%%mzn-stat: allDifferentNumber1PropagationsTotal=742
%%%mzn-stat: allDifferentNumber1PropagationsThatFoundConflict=0
%%%mzn-stat: allDifferentNumber1PropagationsThatPruned=393
%%%mzn-stat: allDifferentNumber1TotalValuesPruned=2428
%%%mzn-stat: allDifferentNumber1TotalHallSetSizeConflict=0
%%%mzn-stat: allDifferentNumber1NumberOfConflicts=0
%%%mzn-stat: allDifferentNumber1MaxHallSetSizeConflict=0
%%%mzn-stat: allDifferentNumber1TotalPruningHallSetSize=7919
%%%mzn-stat: allDifferentNumber1NumberOfPruningExplanations=2428
%%%mzn-stat: allDifferentNumber1MaxPruningHallSetSize=69
%%%mzn-stat: allDifferentNumber1TotalFixedEdgesAtConflict=0
%%%mzn-stat: allDifferentNumber1TotalVarsInvolvedInPruning=2193
%%%mzn-stat: allDifferentNumber1MaxValuesPrunedFromSingleVar=6
%%%mzn-stat: allDifferentNumber1TotalSccSizeAtPruning=2396
%%%mzn-stat: allDifferentNumber1NumberOfSccPruningCalls=393
%%%mzn-stat: circuitNumber2PropagationsThatFoundConflict=28
%%%mzn-stat: circuitNumber2TotalFixedEdgesAtConflict=3388
%%%mzn-stat: circuitNumber2NumberOfConflicts=28
%%%mzn-stat: circuitNumber2PropagationsThatPruned=45
%%%mzn-stat: circuitNumber2PropagationsTotal=396
%%%mzn-stat: AverageConflictSize=4.214285714285714
%%%mzn-stat: NumUnitNogoodsLearned=0
%%%mzn-stat: AverageLearnedNogoodLength=32.357142857142854
%%%mzn-stat: AverageBacktrackAmount=0
%%%mzn-stat: AverageLbd=12.035714285714286
%%%mzn-stat: 2AutonomousSearchNumBackupCalled=3232
%%%mzn-stat: 2AutonomousSearchNumPredicatesRemoved=0
%%%mzn-stat: 2AutonomousSearchNumCalls=3234
%%%mzn-stat: 2AutonomousSearchNumPredicatesAdded=2106
%%%mzn-stat: 2AutonomousSearchAverageSizeOfHeap=0.8398268398268398
%%%mzn-stat: 2AutonomousSearchNumAssignedPredicatesEncountered=2716
%%%mzn-stat-end
maxleg = 832;
succ = array1d(1..150,[30, 4, 18, 5, 15, 8, 34, 17, 24, 21, 26, 32, 20, 47, 43, 41, 27, 46, 63, 23, 42, 38, 6, 16, 2, 31, 11, 53, 3, 19, 36, 39, 1, 22, 7, 66, 10, 44, 54, 13, 84, 28, 12, 45, 52, 49, 48, 40, 9, 71, 14, 57, 126, 51, 68, 33, 65, 70, 96, 29, 25, 35, 72, 37, 59, 50, 60, 81, 61, 85, 90, 64, 75, 77, 74, 69, 79, 109, 101, 58, 86, 73, 76, 56, 102, 87, 97, 105, 67, 139, 89, 106, 114, 80, 78, 118, 99, 94, 137, 130, 111, 110, 104, 122, 120, 107, 119, 83, 142, 93, 112, 103, 55, 123, 95, 121, 113, 136, 149, 127, 88, 145, 125, 132, 141, 128, 92, 138, 135, 117, 143, 100, 129, 116, 134, 147, 140, 133, 146, 91, 131, 108, 115, 124, 144, 150, 148, 98, 62, 82]);
% time elapsed: 18.54 s
----------
%%%mzn-stat: initTime=0.031342082
%%%mzn-stat: objective=433
%%%mzn-stat: nodes=5345
%%%mzn-stat: restarts=0
%%%mzn-stat: peakDepth=1759
%%%mzn-stat: solveTime=0.204757534
%%%mzn-stat: variables=2442
%%%mzn-stat: propagators=2041
%%%mzn-stat: failures=69
%%%mzn-stat: propagations=17596
%%%mzn-stat: nogoods=69
%%%mzn-stat: numAtomicConstraintsPropagated=0
%%%mzn-stat: allDifferentNumber1PropagationsTotal=1214
%%%mzn-stat: allDifferentNumber1PropagationsThatFoundConflict=0
%%%mzn-stat: allDifferentNumber1PropagationsThatPruned=660
%%%mzn-stat: allDifferentNumber1TotalValuesPruned=4087
%%%mzn-stat: allDifferentNumber1TotalHallSetSizeConflict=0
%%%mzn-stat: allDifferentNumber1NumberOfConflicts=0
%%%mzn-stat: allDifferentNumber1MaxHallSetSizeConflict=0
%%%mzn-stat: allDifferentNumber1TotalPruningHallSetSize=20125
%%%mzn-stat: allDifferentNumber1NumberOfPruningExplanations=4087
%%%mzn-stat: allDifferentNumber1MaxPruningHallSetSize=69
%%%mzn-stat: allDifferentNumber1TotalFixedEdgesAtConflict=0
%%%mzn-stat: allDifferentNumber1TotalVarsInvolvedInPruning=3640
%%%mzn-stat: allDifferentNumber1MaxValuesPrunedFromSingleVar=6
%%%mzn-stat: allDifferentNumber1TotalSccSizeAtPruning=8714
%%%mzn-stat: allDifferentNumber1NumberOfSccPruningCalls=660
%%%mzn-stat: circuitNumber2PropagationsThatFoundConflict=69
%%%mzn-stat: circuitNumber2TotalFixedEdgesAtConflict=7990
%%%mzn-stat: circuitNumber2NumberOfConflicts=69
%%%mzn-stat: circuitNumber2PropagationsThatPruned=88
%%%mzn-stat: circuitNumber2PropagationsTotal=658
%%%mzn-stat: AverageConflictSize=3.608695652173913
%%%mzn-stat: NumUnitNogoodsLearned=0
%%%mzn-stat: AverageLearnedNogoodLength=56.89855072463768
%%%mzn-stat: AverageBacktrackAmount=0
%%%mzn-stat: AverageLbd=20.26086956521739
%%%mzn-stat: 2AutonomousSearchNumBackupCalled=4838
%%%mzn-stat: 2AutonomousSearchNumPredicatesRemoved=0
%%%mzn-stat: 2AutonomousSearchNumCalls=4841
%%%mzn-stat: 2AutonomousSearchNumPredicatesAdded=3479
%%%mzn-stat: 2AutonomousSearchAverageSizeOfHeap=1.102045032018178
%%%mzn-stat: 2AutonomousSearchNumAssignedPredicatesEncountered=5335
%%%mzn-stat-end
maxleg = 433;
succ = array1d(1..150,[30, 4, 18, 5, 15, 8, 34, 17, 24, 21, 26, 32, 20, 47, 43, 41, 27, 46, 63, 23, 42, 38, 6, 16, 2, 31, 11, 53, 3, 19, 36, 39, 1, 22, 7, 66, 10, 44, 54, 13, 84, 28, 12, 45, 52, 49, 48, 40, 9, 71, 14, 57, 126, 51, 68, 33, 65, 70, 96, 29, 25, 35, 72, 37, 59, 50, 60, 81, 61, 85, 90, 64, 75, 77, 74, 69, 79, 109, 101, 58, 86, 73, 76, 56, 102, 87, 97, 105, 67, 139, 89, 120, 114, 80, 115, 118, 99, 94, 137, 130, 111, 110, 104, 122, 92, 62, 119, 83, 142, 93, 112, 103, 55, 123, 131, 121, 113, 136, 149, 127, 134, 145, 125, 132, 143, 128, 78, 138, 133, 117, 141, 100, 107, 135, 129, 147, 140, 116, 146, 91, 88, 108, 95, 124, 144, 150, 148, 98, 106, 82]);
% time elapsed: 18.64 s
----------
%%%mzn-stat: initTime=0.031342082
%%%mzn-stat: objective=433
%%%mzn-stat: nodes=686996
%%%mzn-stat: restarts=0
%%%mzn-stat: peakDepth=1759
%%%mzn-stat: solveTime=1781.309411034
%%%mzn-stat: variables=2442
%%%mzn-stat: propagators=2041
%%%mzn-stat: failures=681202
%%%mzn-stat: propagations=31364726
%%%mzn-stat: nogoods=681202
%%%mzn-stat: numAtomicConstraintsPropagated=0
%%%mzn-stat: allDifferentNumber1PropagationsTotal=4933857
%%%mzn-stat: allDifferentNumber1PropagationsThatFoundConflict=13365
%%%mzn-stat: allDifferentNumber1PropagationsThatPruned=3103941
%%%mzn-stat: allDifferentNumber1TotalValuesPruned=14389687
%%%mzn-stat: allDifferentNumber1TotalHallSetSizeConflict=26824
%%%mzn-stat: allDifferentNumber1NumberOfConflicts=13365
%%%mzn-stat: allDifferentNumber1MaxHallSetSizeConflict=3
%%%mzn-stat: allDifferentNumber1TotalPruningHallSetSize=218407160
%%%mzn-stat: allDifferentNumber1NumberOfPruningExplanations=14389687
%%%mzn-stat: allDifferentNumber1MaxPruningHallSetSize=78
%%%mzn-stat: allDifferentNumber1TotalFixedEdgesAtConflict=1118113
%%%mzn-stat: allDifferentNumber1TotalVarsInvolvedInPruning=11263268
%%%mzn-stat: allDifferentNumber1MaxValuesPrunedFromSingleVar=8
%%%mzn-stat: allDifferentNumber1TotalSccSizeAtPruning=88095787
%%%mzn-stat: allDifferentNumber1NumberOfSccPruningCalls=3103941
%%%mzn-stat: circuitNumber2PropagationsThatFoundConflict=655004
%%%mzn-stat: circuitNumber2TotalFixedEdgesAtConflict=58416440
%%%mzn-stat: circuitNumber2NumberOfConflicts=655004
%%%mzn-stat: circuitNumber2PropagationsThatPruned=1463112
%%%mzn-stat: circuitNumber2PropagationsTotal=3538378
%%%mzn-stat: AverageConflictSize=8.70108719586848
%%%mzn-stat: NumUnitNogoodsLearned=0
%%%mzn-stat: AverageLearnedNogoodLength=130.4236379223784
%%%mzn-stat: AverageBacktrackAmount=0
%%%mzn-stat: AverageLbd=33.15627082715553
%%%mzn-stat: 2AutonomousSearchNumBackupCalled=4838
%%%mzn-stat: 2AutonomousSearchNumPredicatesRemoved=0
%%%mzn-stat: 2AutonomousSearchNumCalls=4841
%%%mzn-stat: 2AutonomousSearchNumPredicatesAdded=7951
%%%mzn-stat: 2AutonomousSearchAverageSizeOfHeap=1.102045032018178
%%%mzn-stat: 2AutonomousSearchNumAssignedPredicatesEncountered=5335
%%%mzn-stat-end
